h=7;
w=7;
left=[19, 0, 0, 14, 0, 0, 18];
right=[15, 21, 12, 0, 0, 0, 14];
top=[0, 17, 12, 18, 0, 0, 0];
down=[18, 0, 13, 0, 16, 11, 16];
b=[|0,0,0,0,7,0,0|0,0,0,0,0,0,0|0,0,0,0,0,0,0|0,0,0,0,0,0,0|0,0,0,0,0,0,0|0,5,0,0,0,0,0|0,0,6,0,1,0,0|]